p cnf 66 715
1 2 3 0
4 5 6 0
7 8 9 0
10 11 12 0
13 14 15 0
16 17 18 0
19 20 21 0
22 23 24 0
25 26 27 0
28 29 30 0
31 32 33 0
34 35 36 0
37 38 39 0
40 41 42 0
43 44 45 0
46 47 48 0
49 50 51 0
52 53 54 0
55 56 57 0
58 59 60 0
61 62 63 0
64 65 66 0
-1 -4 0
-1 -7 0
-1 -10 0
-1 -13 0
-1 -16 0
-1 -19 0
-1 -22 0
-1 -25 0
-1 -28 0
-1 -31 0
-1 -34 0
-1 -37 0
-1 -40 0
-1 -43 0
-1 -46 0
-1 -49 0
-1 -52 0
-1 -55 0
-1 -58 0
-1 -61 0
-1 -64 0
-4 -7 0
-4 -10 0
-4 -13 0
-4 -16 0
-4 -19 0
-4 -22 0
-4 -25 0
-4 -28 0
-4 -31 0
-4 -34 0
-4 -37 0
-4 -40 0
-4 -43 0
-4 -46 0
-4 -49 0
-4 -52 0
-4 -55 0
-4 -58 0
-4 -61 0
-4 -64 0
-7 -10 0
-7 -13 0
-7 -16 0
-7 -19 0
-7 -22 0
-7 -25 0
-7 -28 0
-7 -31 0
-7 -34 0
-7 -37 0
-7 -40 0
-7 -43 0
-7 -46 0
-7 -49 0
-7 -52 0
-7 -55 0
-7 -58 0
-7 -61 0
-7 -64 0
-10 -13 0
-10 -16 0
-10 -19 0
-10 -22 0
-10 -25 0
-10 -28 0
-10 -31 0
-10 -34 0
-10 -37 0
-10 -40 0
-10 -43 0
-10 -46 0
-10 -49 0
-10 -52 0
-10 -55 0
-10 -58 0
-10 -61 0
-10 -64 0
-13 -16 0
-13 -19 0
-13 -22 0
-13 -25 0
-13 -28 0
-13 -31 0
-13 -34 0
-13 -37 0
-13 -40 0
-13 -43 0
-13 -46 0
-13 -49 0
-13 -52 0
-13 -55 0
-13 -58 0
-13 -61 0
-13 -64 0
-16 -19 0
-16 -22 0
-16 -25 0
-16 -28 0
-16 -31 0
-16 -34 0
-16 -37 0
-16 -40 0
-16 -43 0
-16 -46 0
-16 -49 0
-16 -52 0
-16 -55 0
-16 -58 0
-16 -61 0
-16 -64 0
-19 -22 0
-19 -25 0
-19 -28 0
-19 -31 0
-19 -34 0
-19 -37 0
-19 -40 0
-19 -43 0
-19 -46 0
-19 -49 0
-19 -52 0
-19 -55 0
-19 -58 0
-19 -61 0
-19 -64 0
-22 -25 0
-22 -28 0
-22 -31 0
-22 -34 0
-22 -37 0
-22 -40 0
-22 -43 0
-22 -46 0
-22 -49 0
-22 -52 0
-22 -55 0
-22 -58 0
-22 -61 0
-22 -64 0
-25 -28 0
-25 -31 0
-25 -34 0
-25 -37 0
-25 -40 0
-25 -43 0
-25 -46 0
-25 -49 0
-25 -52 0
-25 -55 0
-25 -58 0
-25 -61 0
-25 -64 0
-28 -31 0
-28 -34 0
-28 -37 0
-28 -40 0
-28 -43 0
-28 -46 0
-28 -49 0
-28 -52 0
-28 -55 0
-28 -58 0
-28 -61 0
-28 -64 0
-31 -34 0
-31 -37 0
-31 -40 0
-31 -43 0
-31 -46 0
-31 -49 0
-31 -52 0
-31 -55 0
-31 -58 0
-31 -61 0
-31 -64 0
-34 -37 0
-34 -40 0
-34 -43 0
-34 -46 0
-34 -49 0
-34 -52 0
-34 -55 0
-34 -58 0
-34 -61 0
-34 -64 0
-37 -40 0
-37 -43 0
-37 -46 0
-37 -49 0
-37 -52 0
-37 -55 0
-37 -58 0
-37 -61 0
-37 -64 0
-40 -43 0
-40 -46 0
-40 -49 0
-40 -52 0
-40 -55 0
-40 -58 0
-40 -61 0
-40 -64 0
-43 -46 0
-43 -49 0
-43 -52 0
-43 -55 0
-43 -58 0
-43 -61 0
-43 -64 0
-46 -49 0
-46 -52 0
-46 -55 0
-46 -58 0
-46 -61 0
-46 -64 0
-49 -52 0
-49 -55 0
-49 -58 0
-49 -61 0
-49 -64 0
-52 -55 0
-52 -58 0
-52 -61 0
-52 -64 0
-55 -58 0
-55 -61 0
-55 -64 0
-58 -61 0
-58 -64 0
-61 -64 0
-2 -5 0
-2 -8 0
-2 -11 0
-2 -14 0
-2 -17 0
-2 -20 0
-2 -23 0
-2 -26 0
-2 -29 0
-2 -32 0
-2 -35 0
-2 -38 0
-2 -41 0
-2 -44 0
-2 -47 0
-2 -50 0
-2 -53 0
-2 -56 0
-2 -59 0
-2 -62 0
-2 -65 0
-5 -8 0
-5 -11 0
-5 -14 0
-5 -17 0
-5 -20 0
-5 -23 0
-5 -26 0
-5 -29 0
-5 -32 0
-5 -35 0
-5 -38 0
-5 -41 0
-5 -44 0
-5 -47 0
-5 -50 0
-5 -53 0
-5 -56 0
-5 -59 0
-5 -62 0
-5 -65 0
-8 -11 0
-8 -14 0
-8 -17 0
-8 -20 0
-8 -23 0
-8 -26 0
-8 -29 0
-8 -32 0
-8 -35 0
-8 -38 0
-8 -41 0
-8 -44 0
-8 -47 0
-8 -50 0
-8 -53 0
-8 -56 0
-8 -59 0
-8 -62 0
-8 -65 0
-11 -14 0
-11 -17 0
-11 -20 0
-11 -23 0
-11 -26 0
-11 -29 0
-11 -32 0
-11 -35 0
-11 -38 0
-11 -41 0
-11 -44 0
-11 -47 0
-11 -50 0
-11 -53 0
-11 -56 0
-11 -59 0
-11 -62 0
-11 -65 0
-14 -17 0
-14 -20 0
-14 -23 0
-14 -26 0
-14 -29 0
-14 -32 0
-14 -35 0
-14 -38 0
-14 -41 0
-14 -44 0
-14 -47 0
-14 -50 0
-14 -53 0
-14 -56 0
-14 -59 0
-14 -62 0
-14 -65 0
-17 -20 0
-17 -23 0
-17 -26 0
-17 -29 0
-17 -32 0
-17 -35 0
-17 -38 0
-17 -41 0
-17 -44 0
-17 -47 0
-17 -50 0
-17 -53 0
-17 -56 0
-17 -59 0
-17 -62 0
-17 -65 0
-20 -23 0
-20 -26 0
-20 -29 0
-20 -32 0
-20 -35 0
-20 -38 0
-20 -41 0
-20 -44 0
-20 -47 0
-20 -50 0
-20 -53 0
-20 -56 0
-20 -59 0
-20 -62 0
-20 -65 0
-23 -26 0
-23 -29 0
-23 -32 0
-23 -35 0
-23 -38 0
-23 -41 0
-23 -44 0
-23 -47 0
-23 -50 0
-23 -53 0
-23 -56 0
-23 -59 0
-23 -62 0
-23 -65 0
-26 -29 0
-26 -32 0
-26 -35 0
-26 -38 0
-26 -41 0
-26 -44 0
-26 -47 0
-26 -50 0
-26 -53 0
-26 -56 0
-26 -59 0
-26 -62 0
-26 -65 0
-29 -32 0
-29 -35 0
-29 -38 0
-29 -41 0
-29 -44 0
-29 -47 0
-29 -50 0
-29 -53 0
-29 -56 0
-29 -59 0
-29 -62 0
-29 -65 0
-32 -35 0
-32 -38 0
-32 -41 0
-32 -44 0
-32 -47 0
-32 -50 0
-32 -53 0
-32 -56 0
-32 -59 0
-32 -62 0
-32 -65 0
-35 -38 0
-35 -41 0
-35 -44 0
-35 -47 0
-35 -50 0
-35 -53 0
-35 -56 0
-35 -59 0
-35 -62 0
-35 -65 0
-38 -41 0
-38 -44 0
-38 -47 0
-38 -50 0
-38 -53 0
-38 -56 0
-38 -59 0
-38 -62 0
-38 -65 0
-41 -44 0
-41 -47 0
-41 -50 0
-41 -53 0
-41 -56 0
-41 -59 0
-41 -62 0
-41 -65 0
-44 -47 0
-44 -50 0
-44 -53 0
-44 -56 0
-44 -59 0
-44 -62 0
-44 -65 0
-47 -50 0
-47 -53 0
-47 -56 0
-47 -59 0
-47 -62 0
-47 -65 0
-50 -53 0
-50 -56 0
-50 -59 0
-50 -62 0
-50 -65 0
-53 -56 0
-53 -59 0
-53 -62 0
-53 -65 0
-56 -59 0
-56 -62 0
-56 -65 0
-59 -62 0
-59 -65 0
-62 -65 0
-3 -6 0
-3 -9 0
-3 -12 0
-3 -15 0
-3 -18 0
-3 -21 0
-3 -24 0
-3 -27 0
-3 -30 0
-3 -33 0
-3 -36 0
-3 -39 0
-3 -42 0
-3 -45 0
-3 -48 0
-3 -51 0
-3 -54 0
-3 -57 0
-3 -60 0
-3 -63 0
-3 -66 0
-6 -9 0
-6 -12 0
-6 -15 0
-6 -18 0
-6 -21 0
-6 -24 0
-6 -27 0
-6 -30 0
-6 -33 0
-6 -36 0
-6 -39 0
-6 -42 0
-6 -45 0
-6 -48 0
-6 -51 0
-6 -54 0
-6 -57 0
-6 -60 0
-6 -63 0
-6 -66 0
-9 -12 0
-9 -15 0
-9 -18 0
-9 -21 0
-9 -24 0
-9 -27 0
-9 -30 0
-9 -33 0
-9 -36 0
-9 -39 0
-9 -42 0
-9 -45 0
-9 -48 0
-9 -51 0
-9 -54 0
-9 -57 0
-9 -60 0
-9 -63 0
-9 -66 0
-12 -15 0
-12 -18 0
-12 -21 0
-12 -24 0
-12 -27 0
-12 -30 0
-12 -33 0
-12 -36 0
-12 -39 0
-12 -42 0
-12 -45 0
-12 -48 0
-12 -51 0
-12 -54 0
-12 -57 0
-12 -60 0
-12 -63 0
-12 -66 0
-15 -18 0
-15 -21 0
-15 -24 0
-15 -27 0
-15 -30 0
-15 -33 0
-15 -36 0
-15 -39 0
-15 -42 0
-15 -45 0
-15 -48 0
-15 -51 0
-15 -54 0
-15 -57 0
-15 -60 0
-15 -63 0
-15 -66 0
-18 -21 0
-18 -24 0
-18 -27 0
-18 -30 0
-18 -33 0
-18 -36 0
-18 -39 0
-18 -42 0
-18 -45 0
-18 -48 0
-18 -51 0
-18 -54 0
-18 -57 0
-18 -60 0
-18 -63 0
-18 -66 0
-21 -24 0
-21 -27 0
-21 -30 0
-21 -33 0
-21 -36 0
-21 -39 0
-21 -42 0
-21 -45 0
-21 -48 0
-21 -51 0
-21 -54 0
-21 -57 0
-21 -60 0
-21 -63 0
-21 -66 0
-24 -27 0
-24 -30 0
-24 -33 0
-24 -36 0
-24 -39 0
-24 -42 0
-24 -45 0
-24 -48 0
-24 -51 0
-24 -54 0
-24 -57 0
-24 -60 0
-24 -63 0
-24 -66 0
-27 -30 0
-27 -33 0
-27 -36 0
-27 -39 0
-27 -42 0
-27 -45 0
-27 -48 0
-27 -51 0
-27 -54 0
-27 -57 0
-27 -60 0
-27 -63 0
-27 -66 0
-30 -33 0
-30 -36 0
-30 -39 0
-30 -42 0
-30 -45 0
-30 -48 0
-30 -51 0
-30 -54 0
-30 -57 0
-30 -60 0
-30 -63 0
-30 -66 0
-33 -36 0
-33 -39 0
-33 -42 0
-33 -45 0
-33 -48 0
-33 -51 0
-33 -54 0
-33 -57 0
-33 -60 0
-33 -63 0
-33 -66 0
-36 -39 0
-36 -42 0
-36 -45 0
-36 -48 0
-36 -51 0
-36 -54 0
-36 -57 0
-36 -60 0
-36 -63 0
-36 -66 0
-39 -42 0
-39 -45 0
-39 -48 0
-39 -51 0
-39 -54 0
-39 -57 0
-39 -60 0
-39 -63 0
-39 -66 0
-42 -45 0
-42 -48 0
-42 -51 0
-42 -54 0
-42 -57 0
-42 -60 0
-42 -63 0
-42 -66 0
-45 -48 0
-45 -51 0
-45 -54 0
-45 -57 0
-45 -60 0
-45 -63 0
-45 -66 0
-48 -51 0
-48 -54 0
-48 -57 0
-48 -60 0
-48 -63 0
-48 -66 0
-51 -54 0
-51 -57 0
-51 -60 0
-51 -63 0
-51 -66 0
-54 -57 0
-54 -60 0
-54 -63 0
-54 -66 0
-57 -60 0
-57 -63 0
-57 -66 0
-60 -63 0
-60 -66 0
-63 -66 0
